param WTMAX := 102;

# Defines ITEMS here:
# Note "ITEMS:" (with kolon)
param: ITEMS: VALUE WEIGHT :=
  kamera  15  2
  väska 100 20
  kort  90 20
  penna  60 30
  pistol  40 40 
  socker  15 30
  banan  10 60
  ost   1 10
  smör  12 21
  karatepinnar  12 12
  mus 100  2  
;
